894,514
654,491
858,378
801,406
672,434
575,460
586,593
857,648
742,791
1081,610
524,891
1095,341
1101,406
695,494
611,503
753,458
1155,481
663,524
491,780
677,377
764,150
536,511
307,216
830,700
382,818
560,494
966,314
681,226
600,566
282,277
966,314
823,452
406,131
196,563
427,152
225,258
625,51
